9
0 0 1 1 0 1 10 0 12 0 0 10 2 3 5 1 4 5 6 6 5 6 0 2 1 4 2 6 4 3 10 0 2 1 0 3 1 0 4 6 2 1 0 1 10 4 8 0 4 3 2 1 0 6 5 1 0 4 0 2 1 5 6 7 4 1 2 1 0 3 2 5 4 0 3 2 1 0 5 8 1 2 4 3 9 9 1 0 2 1 2 0 3 4 4 5 1 0 1 0 
